Default LOCALE: LC_CTYPE=en_US.UTF-8;LC_NUMERIC=it_IT.UTF-8;LC_TIME=en_US.UTF-8;LC_COLLATE=en_US.UTF-8;LC_MONETARY=it_IT.UTF-8;LC_MESSAGES=en_US.UTF-8;LC_PAPER=it_IT.UTF-8;LC_NAME=it_IT.UTF-8;LC_ADDRESS=it_IT.UTF-8;LC_TELEPHONE=it_IT.UTF-8;LC_MEASUREMENT=it_IT.UTF-8;LC_IDENTIFICATION=it_IT.UTF-8

<<< setup, at 0s, took 1,54878e+09s


<<< generate, at 0s, took 0,00412703s

CPXPARAM_TimeLimit                               80
Tried aggregator 2 times.
MIP Presolve eliminated 9 rows and 9 columns.
Aggregator did 10 substitutions.
Reduced MIP has 111 rows, 181 columns, and 614 nonzeros.
Reduced MIP has 90 binaries, 91 generals, 0 SOSs, and 0 indicators.
Presolve time = 0,00 sec. (0,61 ticks)
Found incumbent of value 52,524415 after 0,00 sec. (1,27 ticks)
Probing fixed 7 vars, tightened 0 bounds.
Probing time = 0,00 sec. (0,36 ticks)
Cover probing fixed 0 vars, tightened 63 bounds.
Tried aggregator 1 time.
MIP Presolve eliminated 10 rows and 16 columns.
MIP Presolve modified 112 coefficients.
Reduced MIP has 101 rows, 165 columns, and 565 nonzeros.
Reduced MIP has 83 binaries, 82 generals, 0 SOSs, and 0 indicators.
Presolve time = 0,00 sec. (0,67 ticks)
Probing time = 0,00 sec. (0,30 ticks)
Clique table members: 19.
MIP emphasis: balance optimality and feasibility.
MIP search method: dynamic search.
Parallel mode: deterministic, using up to 4 threads.
Root relaxation solution time = 0,00 sec. (0,98 ticks)

        Nodes                                         Cuts/
   Node  Left     Objective  IInf  Best Integer    Best Bound    ItCnt     Gap

*     0+    0                           52,5244        0,0000           100,00%
      0     0       24,4251    28       52,5244       24,4251      157   53,50%
      0     0       25,9881    36       52,5244      Cuts: 42      185   50,52%
      0     0       29,6579    38       52,5244      Cuts: 29      221   43,53%
      0     0       30,4084    37       52,5244      Cuts: 15      234   42,11%
      0     0       30,8099    36       52,5244      Cuts: 17      256   41,34%
      0     0       30,9468    25       52,5244       Cuts: 7      283   41,08%
      0     0       31,0561    32       52,5244      Cuts: 27      300   40,87%
      0     0       31,0904    40       52,5244      Cuts: 22      345   40,81%
*     0+    0                           31,0917       31,0904             0,00%
      0     0        cutoff             31,0917       31,0906      345    0,00%
Elapsed time = 0,10 sec. (39,42 ticks, tree = 0,01 MB, solutions = 2)

Cover cuts applied:  4
Implied bound cuts applied:  6
Flow cuts applied:  11
Mixed integer rounding cuts applied:  1
Zero-half cuts applied:  3
Gomory fractional cuts applied:  1

Root node processing (before b&c):
  Real time             =    0,10 sec. (39,44 ticks)
Parallel b&c, 4 threads:
  Real time             =    0,00 sec. (0,00 ticks)
  Sync time (average)   =    0,00 sec.
  Wait time (average)   =    0,00 sec.
                          ------------
Total (root+branch&cut) =    0,10 sec. (39,44 ticks)

<<< solve, at 0,33s, took 0,098948s


OBJECTIVE: 31.09174
01/29/2019 18:42:36 400
solving time ~= 100.678955078
Done
 [[0 0 3 0 0 0 0 0 0 0]
         [4 0 0 0 0 0 0 0 0 0]
         [0 0 0 0 0 0 0 0 2 0]
         [0 5 0 0 0 0 0 0 0 0]
         [0 0 0 6 0 0 0 0 0 0]
         [0 0 0 0 7 0 0 0 0 0]
         [0 0 0 0 0 8 0 0 0 0]
         [0 0 0 0 0 0 9 0 0 0]
         [0 0 0 0 0 0 0 0 0 1]
         [0 0 0 0 0 0 0 10 0 0]]

<<< post process, at 0,33s, took 0,000529051s

// solution (optimal) with objective 31.0917384090375
// Quality Incumbent solution:
// MILP objective                                 3,1091738409e+01
// MILP solution norm |x| (Total, Max)            6,50000e+01  1,00000e+01
// MILP solution error (Ax=b) (Total, Max)        0,00000e+00  0,00000e+00
// MILP x bound error (Total, Max)                0,00000e+00  0,00000e+00
// MILP x integrality error (Total, Max)          0,00000e+00  0,00000e+00
// MILP slack bound error (Total, Max)            0,00000e+00  0,00000e+00
// 

y = [[0
             0 1 0 0 0 0 0 0 0]
             [1 0 0 0 0 0 0 0 0 0]
             [0 0 0 0 0 0 0 0 1 0]
             [0 1 0 0 0 0 0 0 0 0]
             [0 0 0 1 0 0 0 0 0 0]
             [0 0 0 0 1 0 0 0 0 0]
             [0 0 0 0 0 1 0 0 0 0]
             [0 0 0 0 0 0 1 0 0 0]
             [0 0 0 0 0 0 0 0 0 1]
             [0 0 0 0 0 0 0 1 0 0]];
x = [[0 0 3 0 0 0 0 0 0 0]
             [4 0 0 0 0 0 0 0 0 0]
             [0 0 0 0 0 0 0 0 2 0]
             [0 5 0 0 0 0 0 0 0 0]
             [0 0 0 6 0 0 0 0 0 0]
             [0 0 0 0 7 0 0 0 0 0]
             [0 0 0 0 0 8 0 0 0 0]
             [0 0 0 0 0 0 9 0 0 0]
             [0 0 0 0 0 0 0 0 0 1]
             [0 0 0 0 0 0 0 10 0 0]];

<<< done, at 0,33s, took 0,000408888s

